; PUSH 0x00 PUSH cw_1 MUL => PUSH 0x00
(set-option :produce-proofs true)
; 
(set-info :status unknown)
(declare-fun storage_t ((_ BitVec 256) Int (_ BitVec 256)) (_ BitVec 256))
(declare-fun w_1 () (_ BitVec 256))
(declare-fun storage_s ((_ BitVec 256) Int (_ BitVec 256)) (_ BitVec 256))
(declare-fun exc_halt_t (Int) Bool)
(declare-fun exc_halt_s (Int) Bool)
(declare-fun sc_t (Int) (_ BitVec 6))
(declare-fun stack_t ((_ BitVec 256) Int (_ BitVec 6)) (_ BitVec 256))
(declare-fun stack_s ((_ BitVec 256) Int (_ BitVec 6)) (_ BitVec 256))
(declare-fun sc_s (Int) (_ BitVec 6))
(declare-fun used_gas_t ((_ BitVec 256) Int) Int)
(declare-fun used_gas_s ((_ BitVec 256) Int) Int)
(assert
 (let (($x10414 (forall ((w (_ BitVec 256)) )(let ((?x3815 (storage_t w_1 1 w)))
 (let ((?x3260 (storage_s w_1 3 w)))
 (= ?x3260 ?x3815))))
 ))
 (let (($x1920 (exc_halt_t 1)))
 (let (($x292 (exc_halt_s 3)))
 (let (($x8570 (= $x292 $x1920)))
 (let (($x79 (forall ((n (_ BitVec 6)) )(let ((?x4023 (sc_t 1)))
 (let (($x10182 (bvsle ?x4023 n)))
 (let ((?x10214 (stack_t w_1 1 n)))
 (let ((?x9928 (stack_s w_1 3 n)))
 (let (($x9655 (= ?x9928 ?x10214)))
 (or $x9655 $x10182)))))))
 ))
 (let ((?x4023 (sc_t 1)))
 (let ((?x275 (sc_s 3)))
 (let (($x1111 (= ?x275 ?x4023)))
 (let ((?x11308 (used_gas_t w_1 0)))
 (let ((?x6789 (used_gas_s w_1 0)))
 (let (($x11199 (= ?x6789 ?x11308)))
 (let (($x5038 (forall ((w (_ BitVec 256)) )(let ((?x8620 (storage_t w_1 0 w)))
 (let ((?x3777 (storage_s w_1 0 w)))
 (= ?x3777 ?x8620))))
 ))
 (let (($x56 (exc_halt_t 0)))
 (let (($x57 (exc_halt_s 0)))
 (let (($x58 (= $x57 $x56)))
 (let (($x307 (forall ((n (_ BitVec 6)) )(let ((?x63 (sc_t 0)))
 (let (($x10780 (bvsle ?x63 n)))
 (let ((?x3011 (stack_t w_1 0 n)))
 (let ((?x8023 (stack_s w_1 0 n)))
 (let (($x99 (= ?x8023 ?x3011)))
 (or $x99 $x10780)))))))
 ))
 (let ((?x63 (sc_t 0)))
 (let ((?x72 (sc_s 0)))
 (let (($x73 (= ?x72 ?x63)))
 (let (($x10495 (= $x1920 (or $x56 (not (= ((_ extract 6 6) (bvadd (_ bv1 7) (concat (_ bv0 1) ?x63))) (_ bv0 1)))))))
 (let (($x10410 (forall ((w (_ BitVec 256)) )(let ((?x8620 (storage_t w_1 0 w)))
 (let ((?x3815 (storage_t w_1 1 w)))
 (= ?x3815 ?x8620))))
 ))
 (let (($x6211 (forall ((n (_ BitVec 6)) )(let ((?x63 (sc_t 0)))
 (let (($x10780 (bvsle ?x63 n)))
 (or (= (stack_t w_1 1 n) (stack_t w_1 0 n)) $x10780))))
 ))
 (let (($x5045 (= ?x4023 (bvadd (_ bv1 6) ?x63))))
 (let (($x10091 (= $x292 (or (exc_halt_s 2) (not (bvsle (_ bv0 6) (bvadd (_ bv62 6) (sc_s 2))))))))
 (let (($x3833 (forall ((w (_ BitVec 256)) )(let ((?x4265 (storage_s w_1 2 w)))
 (let ((?x3260 (storage_s w_1 3 w)))
 (= ?x3260 ?x4265))))
 ))
 (let (($x1005 (forall ((n (_ BitVec 6)) )(let ((?x218 (sc_s 2)))
 (let ((?x10627 (bvadd (_ bv62 6) ?x218)))
 (let (($x2768 (bvsle ?x10627 n)))
 (or $x2768 (= (stack_s w_1 3 n) (stack_s w_1 2 n)))))))
 ))
 (let ((?x8664 (bvmul (stack_s w_1 2 (bvadd (_ bv62 6) (sc_s 2))) (stack_s w_1 2 (bvadd (_ bv63 6) (sc_s 2))))))
 (let (($x2045 (not (= ((_ extract 6 6) (bvadd (_ bv1 7) (concat (_ bv0 1) (sc_s 1)))) (_ bv0 1)))))
 (let (($x189 (exc_halt_s 1)))
 (let (($x247 (exc_halt_s 2)))
 (let (($x8902 (= $x247 (or $x189 $x2045))))
 (let (($x9704 (forall ((w (_ BitVec 256)) )(let ((?x5232 (storage_s w_1 1 w)))
 (let ((?x4265 (storage_s w_1 2 w)))
 (= ?x4265 ?x5232))))
 ))
 (let (($x13 (forall ((n (_ BitVec 6)) )(let ((?x154 (sc_s 1)))
 (let (($x2897 (bvsle ?x154 n)))
 (or (= (stack_s w_1 2 n) (stack_s w_1 1 n)) $x2897))))
 ))
 (let ((?x218 (sc_s 2)))
 (let (($x1095 (= ?x218 (bvadd (_ bv1 6) (sc_s 1)))))
 (let (($x3426 (= $x189 (or $x57 (not (= ((_ extract 6 6) (bvadd (_ bv1 7) (concat (_ bv0 1) ?x72))) (_ bv0 1)))))))
 (let (($x1710 (forall ((w (_ BitVec 256)) )(let ((?x3777 (storage_s w_1 0 w)))
 (let ((?x5232 (storage_s w_1 1 w)))
 (= ?x5232 ?x3777))))
 ))
 (let (($x1542 (forall ((n (_ BitVec 6)) )(let ((?x72 (sc_s 0)))
 (let (($x5059 (bvsle ?x72 n)))
 (or (= (stack_s w_1 1 n) (stack_s w_1 0 n)) $x5059))))
 ))
 (let ((?x154 (sc_s 1)))
 (let (($x5613 (= ?x154 (bvadd (_ bv1 6) ?x72))))
 (let (($x8286 (forall ((w (_ BitVec 256)) )(let ((?x3777 (storage_s w_1 0 w)))
 (= ?x3777 (_ bv0 256))))
 ))
 (let (($x10821 (= ?x6789 0)))
 (let (($x9872 (not $x57)))
 (let (($x136 (= ?x72 (_ bv0 6))))
 (and $x136 $x9872 $x10821 $x8286 (= (stack_s w_1 1 ?x72) (_ bv0 256)) (= (used_gas_s w_1 1) (+ 3 ?x6789)) $x5613 $x1542 $x1710 $x3426 (= (stack_s w_1 2 ?x154) w_1) (= (used_gas_s w_1 2) (+ 3 (used_gas_s w_1 1))) $x1095 $x13 $x9704 $x8902 (= (stack_s w_1 3 (bvadd (_ bv63 6) ?x275)) ?x8664) (= (used_gas_s w_1 3) (+ 5 (used_gas_s w_1 2))) (= ?x275 (bvadd (_ bv63 6) ?x218)) $x1005 $x3833 $x10091 (= (stack_t w_1 1 ?x63) (_ bv0 256)) (= (used_gas_t w_1 1) (+ 3 ?x11308)) $x5045 $x6211 $x10410 $x10495 $x73 $x307 $x58 $x5038 $x11199 (not (and $x1111 $x79 $x8570 $x10414))))))))))))))))))))))))))))))))))))))))))))))))
(check-sat)
(get-proof)
